
Gurobi 13.0.2 (win64) logging started Thu Jul 23 06:58:18 2026

Set parameter LogFile to value "E:\codes\ExactEBRP\results\gf_cplex_equivalent_gurobi_replica_round28\runs\stage2__tight_T_seed5102__c3_replica__300s\external\native_logs\R.0.1.0.1.0.1.1.0.0.1_terminal_mip.gurobi.log"
Gurobi Optimizer version 13.0.2 build v13.0.2rc1 (win64 - Windows 10.0 (19045.2))

CPU model: 12th Gen Intel(R) Core(TM) i7-12700KF, instruction set [SSE2|AVX|AVX2]
Thread count: 12 physical cores, 20 logical processors, using up to 1 threads

Non-default parameters:
TimeLimit  1.8190306319999996e+02
MIPGap  0
MIPGapAbs  0
LogToConsole  0
Threads  1

Optimize a model with 11916 rows, 3378 columns and 67376 nonzeros (Min)
Model fingerprint: 0xc6181dae
Model has 21 linear objective coefficients
Variable types: 1686 continuous, 1692 integer (1492 binary)
Coefficient statistics:
  Matrix range     [7e-03, 2e+04]
  Objective range  [7e-03, 1e+00]
  Bounds range     [1e-01, 4e+02]
  RHS range        [8e-02, 5e+04]

Presolve removed 1278 rows and 74 columns
Presolve time: 0.18s
Presolved: 10638 rows, 3304 columns, 71004 nonzeros
Variable types: 1640 continuous, 1664 integer (1479 binary)

Root relaxation: objective 2.322886e-01, 3365 iterations, 0.18 seconds (0.48 work units)

    Nodes    |    Current Node    |     Objective Bounds      |     Work
 Expl Unexpl |  Obj  Depth IntInf | Incumbent    BestBd   Gap | It/Node Time

     0     0    0.23229    0  183          -    0.23229      -     -    0s
     0     0 infeasible    0               - infeasible      -     -    0s

Cutting planes:
  Learned: 6
  Gomory: 3
  Cover: 25
  Implied bound: 155
  Clique: 6
  MIR: 272
  StrongCG: 17
  Flow cover: 102
  GUB cover: 1
  Zero half: 7
  Network: 21
  RLT: 9
  Relax-and-lift: 48
  BQP: 8

Explored 1 nodes (4533 simplex iterations) in 0.94 seconds (1.83 work units)
Thread count was 1 (of 20 available processors)

Solution count 0

Model is infeasible
Best objective -, best bound -, gap -

User-callback calls 896, time in user-callback 0.00 sec
